; benchmark generated from python API
(set-info :status unknown)
(declare-fun strlen_72_64 () (_ BitVec 64))
(declare-fun args_0_8 () (_ BitVec 8))
(declare-fun strlen_74_64 () (_ BitVec 64))
(declare-fun args_1_8 () (_ BitVec 8))
(declare-fun strlen_77_64 () (_ BitVec 64))
(declare-fun args_2_8 () (_ BitVec 8))
(declare-fun strlen_81_64 () (_ BitVec 64))
(declare-fun args_3_8 () (_ BitVec 8))
(declare-fun sigaction_oldact_179_1216 () (_ BitVec 1216))
(declare-fun sigaction_oldact_191_1216 () (_ BitVec 1216))
(declare-fun sigaction_oldact_210_1216 () (_ BitVec 1216))
(declare-fun sigaction_oldact_248_1216 () (_ BitVec 1216))
(declare-fun sigaction_oldact_323_1216 () (_ BitVec 1216))
(declare-fun sigaction_oldact_474_1216 () (_ BitVec 1216))
(declare-fun sigaction_oldact_787_1216 () (_ BitVec 1216))
(declare-fun sigaction_oldact_1447_1216 () (_ BitVec 1216))
(declare-fun sigaction_oldact_2642_1216 () (_ BitVec 1216))
(assert
 (= (_ bv1 64) strlen_72_64))
(assert
 (let (($x69 (= (_ bv0 8) args_0_8)))
 (not $x69)))
(assert
 (= (_ bv1 64) strlen_74_64))
(assert
 (let (($x347 (= (_ bv0 8) args_1_8)))
 (not $x347)))
(assert
 (let (($x218 (= (_ bv1 64) strlen_77_64)))
 (not $x218)))
(assert
 (let ((?x192 (bvadd (_ bv576460752303357828 64) strlen_77_64)))
 (let (($x369 (= (_ bv0 8) args_2_8)))
 (let ((?x373 (ite $x369 (_ bv576460752303357828 64) (_ bv576460752303357829 64))))
 (= ?x373 ?x192)))))
(assert
 (let (($x415 (= (_ bv0 8) args_3_8)))
 (let ((?x225 (ite $x415 (_ bv576460752303357830 64) (_ bv576460752303357831 64))))
 (let ((?x197 (bvsub ?x225 (_ bv576460752303357830 64))))
 (= ?x197 strlen_81_64)))))
(assert
 (let ((?x2445 ((_ extract 127 120) sigaction_oldact_179_1216)))
 (let ((?x2507 (bvand ?x2445 (_ bv4 8))))
 (= (_ bv0 8) ?x2507))))
(assert
 (let ((?x2991 ((_ extract 127 120) sigaction_oldact_191_1216)))
 (let ((?x3035 (bvand ?x2991 (_ bv4 8))))
 (= (_ bv0 8) ?x3035))))
(assert
 (let ((?x4253 ((_ extract 127 120) sigaction_oldact_210_1216)))
 (let ((?x4273 (bvand ?x4253 (_ bv4 8))))
 (and (distinct (_ bv0 8) ?x4273) true))))
(assert
 (let ((?x6834 ((_ extract 127 120) sigaction_oldact_248_1216)))
 (let ((?x6911 (bvand ?x6834 (_ bv4 8))))
 (= (_ bv0 8) ?x6911))))
(assert
 (let ((?x11911 ((_ extract 127 120) sigaction_oldact_323_1216)))
 (let ((?x11917 (bvand ?x11911 (_ bv4 8))))
 (and (distinct (_ bv0 8) ?x11917) true))))
(assert
 (let ((?x23254 ((_ extract 127 120) sigaction_oldact_474_1216)))
 (let ((?x23260 (bvand ?x23254 (_ bv4 8))))
 (and (distinct (_ bv0 8) ?x23260) true))))
(assert
 (let ((?x45362 ((_ extract 127 120) sigaction_oldact_787_1216)))
 (let ((?x367 (bvand ?x45362 (_ bv4 8))))
 (and (distinct (_ bv0 8) ?x367) true))))
(assert
 (let ((?x83283 ((_ extract 127 120) sigaction_oldact_1447_1216)))
 (let ((?x45886 (bvand ?x83283 (_ bv4 8))))
 (= (_ bv0 8) ?x45886))))
(assert
 (let ((?x151940 ((_ extract 127 120) sigaction_oldact_2642_1216)))
 (let ((?x151946 (bvand ?x151940 (_ bv4 8))))
 (= (_ bv0 8) ?x151946))))
(maximize args_2_8)
(maximize strlen_81_64)
(minimize sigaction_oldact_2642_1216)
(minimize strlen_81_64)
(maximize args_0_8)
(minimize strlen_77_64)
(maximize args_1_8)
(maximize strlen_72_64)
(minimize sigaction_oldact_191_1216)
(minimize args_1_8)
(maximize sigaction_oldact_1447_1216)
(minimize strlen_74_64)
(minimize args_3_8)
(minimize sigaction_oldact_323_1216)
(maximize args_3_8)
(minimize sigaction_oldact_179_1216)
(maximize strlen_74_64)
(maximize strlen_77_64)
(maximize sigaction_oldact_323_1216)
(maximize sigaction_oldact_210_1216)
(minimize sigaction_oldact_210_1216)
(minimize strlen_72_64)
(check-sat)
(get-objectives)
